(set-logic HORN)
(declare-fun state (Int (Array Int Int) (Array Int Int) (Array Int Int) (Array Int Int) Int Int (Array Int Int) (Array Int Int) Int Int Int Int Int Int Int Int Int Int Int Int Int Int Int Int Int Int Int Bool Bool Bool Bool (Array Int Int)) Bool)
(assert (forall ((|A_9| Int) (|B_9| (Array Int Int)) (|C_9| (Array Int Int)) (|D_9| (Array Int Int)) (|E_9| (Array Int Int)) (|F_9| Int) (|G_9| Int) (|H_9| (Array Int Int)) (|I_9| (Array Int Int)) (|J_9| Int) (|K_9| Int) (|L_9| Int) (|D1_5| Int) (|N_9| Int) (|O_9| Int) (|P_9| Int) (|Q_9| Int) (|R_9| Int) (|S_9| Int) (|T_9| Int) (|U_9| Int) (|V_9| Int) (|W_9| Int) (|X_9| Int) (|E1_5| Int) (|Z_9| Int) (|A1_9| Int) (|B1_9| Int) (|C1_9| Bool) (|.loc.4| Bool) (|.loc.5| Bool) (|.loc.6| Bool) (|D1_0| (Array Int Int)) (|.x.350| Int) (|.x.348| (Array Int Int)) (|.x.346| Int) (|.x.344| (Array Int Int)) (|.x.340| Int) (|.x.342| (Array Int Int)) (|.x.352| Int) (|.x.364| Int) (|C1_12| Bool) (|.x.341| (Array Int Int)) (|.x.359| Int) (|.x.360| Int) (|.x.362| Int) (|.x.365| Int) (|.loc.8| Bool) (|.x.354| Int) (|.x.353| Int) (|.x.356| Int) (|.x.357| Int) (|.x.361| Int) (|.x.366| Int) (|.loc.9| Bool) (|.loc.7| Bool) (|.x.355| Int) (|.x.343| (Array Int Int)) (|.x.363| Int) (|.x.367| Int) (|.x.351| Int) (|.x.358| Int) (|.x.349| Int) (|.x.345| Int) (|.x.347| (Array Int Int)) (|.xtv.1| (Array Int Int))) (=> (and (and (and (not .loc.5) (not .loc.4)) (not .loc.6)) (and (and (and (and (and (= D_9 E_9) (not C1_9)) (= F_9 G_9)) (= J_9 K_9)) (= H_9 I_9)) (= B_9 C_9))) (state |A_9| |B_9| |C_9| |D_9| |E_9| |F_9| |G_9| |H_9| |I_9| |J_9| |K_9| |L_9| |D1_5| |N_9| |O_9| |P_9| |Q_9| |R_9| |S_9| |T_9| |U_9| |V_9| |W_9| |X_9| |E1_5| |Z_9| |A1_9| |B1_9| |C1_9| |.loc.4| |.loc.5| |.loc.6| |D1_0|))))
(assert (forall ((|A_9| Int) (|B_9| (Array Int Int)) (|C_9| (Array Int Int)) (|D_9| (Array Int Int)) (|E_9| (Array Int Int)) (|F_9| Int) (|G_9| Int) (|H_9| (Array Int Int)) (|I_9| (Array Int Int)) (|J_9| Int) (|K_9| Int) (|L_9| Int) (|D1_5| Int) (|N_9| Int) (|O_9| Int) (|P_9| Int) (|Q_9| Int) (|R_9| Int) (|S_9| Int) (|T_9| Int) (|U_9| Int) (|V_9| Int) (|W_9| Int) (|X_9| Int) (|E1_5| Int) (|Z_9| Int) (|A1_9| Int) (|B1_9| Int) (|C1_9| Bool) (|.loc.4| Bool) (|.loc.5| Bool) (|.loc.6| Bool) (|D1_0| (Array Int Int)) (|.x.350| Int) (|.x.348| (Array Int Int)) (|.x.346| Int) (|.x.344| (Array Int Int)) (|.x.340| Int) (|.x.342| (Array Int Int)) (|.x.352| Int) (|.x.364| Int) (|C1_12| Bool) (|.x.341| (Array Int Int)) (|.x.359| Int) (|.x.360| Int) (|.x.362| Int) (|.x.365| Int) (|.loc.8| Bool) (|.x.354| Int) (|.x.353| Int) (|.x.356| Int) (|.x.357| Int) (|.x.361| Int) (|.x.366| Int) (|.loc.9| Bool) (|.loc.7| Bool) (|.x.355| Int) (|.x.343| (Array Int Int)) (|.x.363| Int) (|.x.367| Int) (|.x.351| Int) (|.x.358| Int) (|.x.349| Int) (|.x.345| Int) (|.x.347| (Array Int Int)) (|.xtv.1| (Array Int Int))) (=> (and (state |A_9| |B_9| |C_9| |D_9| |E_9| |F_9| |G_9| |H_9| |I_9| |J_9| |K_9| |L_9| |D1_5| |N_9| |O_9| |P_9| |Q_9| |R_9| |S_9| |T_9| |U_9| |V_9| |W_9| |X_9| |E1_5| |Z_9| |A1_9| |B1_9| |C1_9| |.loc.4| |.loc.5| |.loc.6| |D1_0|) (let ((.def_43 (not .loc.5))) (let ((.def_44 (not .loc.4))) (let ((.def_46 (not .loc.6))) (let ((.def_79 (= .x.352 0))) (let ((.def_88 (or C1_9 (and (= .x.352 .x.364) (= .x.364 (ite (<= 0 Q_9) 1 0)))))) (let ((.def_92 (= B_9 .x.341))) (let ((.def_95 (= T_9 .x.359))) (let ((.def_98 (= U_9 .x.360))) (let ((.def_101 (= W_9 .x.362))) (let ((.def_104 (= Z_9 .x.365))) (let ((.def_116 (= C1_9 C1_12))) (let ((.def_118 (= E1_5 .x.364))) (let ((.def_120 (= D1_5 .x.352))) (let ((.def_128 (and C1_9 .def_92))) (let ((.def_138 (not .loc.8))) (let ((.def_150 (<= 48 (+ O_9 (* (- 256) (to_int (* (/ 1 256) (to_real O_9)))))))) (let ((.def_153 (<= (+ O_9 (* (- 256) (to_int (* (/ 1 256) (to_real O_9))))) 57))) (let ((.def_162 (and .loc.5 (and .loc.4 (and .def_104 (and .def_101 (and .def_98 (and .def_92 .def_95)))))))) (let ((.def_171 (= O_9 .x.354))) (let ((.def_173 (= N_9 .x.353))) (let ((.def_176 (= Q_9 .x.356))) (let ((.def_179 (= R_9 .x.357))) (let ((.def_182 (= V_9 .x.361))) (let ((.def_185 (= A1_9 .x.366))) (let ((.def_190 (not .loc.7))) (let ((.def_248 (select D_9 Z_9))) (let ((.def_259 (not .loc.9))) (let ((.def_306 (= P_9 .x.355))) (let ((.def_308 (= D_9 .x.343))) (let ((.def_311 (= X_9 .x.363))) (let ((.def_314 (= B1_9 .x.367))) (let ((.def_327 (= .x.356 0))) (let ((.def_334 (and .def_92 .def_173))) (let ((.def_377 (<= 11 Q_9))) (and (and (= K_9 .x.350) (and (= I_9 .x.348) (and (= G_9 .x.346) (and (= E_9 .x.344) (and (= A_9 .x.340) (= C_9 .x.342)))))) (or (and (or (and (or (or (or (and (or (or (or (and (or (or (and (or (and .def_44 (and (or C1_9 .def_79) (and (and (and (and (and (and .def_88 C1_12) .def_92) .def_95) .def_98) .def_101) .def_104))) (and (or C1_9 (and (= .x.362 0) (= .x.341 (store B_9 Z_9 0)))) (and (and (and (and .loc.4 (or C1_12 (= .x.359 .x.362))) .def_116) .def_118) .def_120))) (and (and .loc.6 .def_43) .loc.8)) (and .def_46 (and (and .def_120 (and .def_118 (and .def_116 (and .loc.5 (and .loc.4 (and .def_104 (and .def_101 (and .def_98 (and .def_95 .def_128))))))))) .def_138))) (and (or (not .def_150) (or C1_9 (not .def_153))) (and .def_46 (and .def_138 (and .def_120 (and .def_118 (and .def_116 .def_162))))))) (and (and (and (and (and (and (and .def_171 .def_173) .def_176) .def_179) .def_182) .def_185) .loc.9) .def_190)) (and (or C1_9 (and (and (= .x.356 (ite (<= (+ (* 10 Q_9) (+ .x.361 (* (- 4294967296) (to_int (+ (* (/ 5 2147483648) (to_real Q_9)) (* (/ 1 4294967296) (to_real .x.361))))))) 2147483647) (+ (+ (+ (+ (+ (* (- 4294967296) (to_int (+ (* (/ 5 2147483648) (to_real Q_9)) (* (/ 1 4294967296) (to_real .x.361))))) (* (- 42949672960) (to_int (* (/ 1 4294967296) (to_real Q_9))))) (* 4294967296 (to_int (* (/ 5 2147483648) (to_real Q_9))))) (* 42949672960 (to_int (* (/ 1 4294967296) (to_real Q_9))))) (* 4294967296 (to_int (* (/ 1 4294967296) (to_real .x.361))))) (+ (+ (+ (* 42949672960 (to_int (* (/ 1 4294967296) (to_real Q_9)))) (* (- 4294967296) (to_int (* (/ 5 2147483648) (to_real Q_9))))) (+ (* (- 42949672960) (to_int (* (/ 1 4294967296) (to_real Q_9)))) (* 10 Q_9))) (+ .x.361 (* (- 4294967296) (to_int (* (/ 1 4294967296) (to_real .x.361))))))) (+ (- 4294967296) (+ (+ (+ (+ (+ (* (- 4294967296) (to_int (+ (* (/ 5 2147483648) (to_real Q_9)) (* (/ 1 4294967296) (to_real .x.361))))) (* (- 42949672960) (to_int (* (/ 1 4294967296) (to_real Q_9))))) (* 4294967296 (to_int (* (/ 5 2147483648) (to_real Q_9))))) (* 42949672960 (to_int (* (/ 1 4294967296) (to_real Q_9))))) (* 4294967296 (to_int (* (/ 1 4294967296) (to_real .x.361))))) (+ (+ (+ (* 42949672960 (to_int (* (/ 1 4294967296) (to_real Q_9)))) (* (- 4294967296) (to_int (* (/ 5 2147483648) (to_real Q_9))))) (+ (* (- 42949672960) (to_int (* (/ 1 4294967296) (to_real Q_9)))) (* 10 Q_9))) (+ .x.361 (* (- 4294967296) (to_int (* (/ 1 4294967296) (to_real .x.361)))))))))) (and (= (+ O_9 (+ (* (- 256) (to_int (* (/ 1 256) (to_real O_9)))) (* (- 1) .x.361))) 48) (and (= (+ R_9 (* (- 1) .x.357)) (- 1)) (and .def_150 .def_153)))) (= .x.354 (select .def_248 (+ U_9 .x.357))))) (and (and .def_46 (and .def_120 (and .def_118 (and .def_116 (and .loc.8 (and .def_162 .loc.7)))))) .def_259))) (and (or C1_12 (not .def_79)) (and .def_138 (and .def_116 (and .loc.9 (and .loc.7 (and .def_43 (and .def_44 (and .loc.6 (and .def_185 (and .def_104 (and .def_101 (and .def_182 (and .def_98 (and .def_95 (and .def_179 (and .def_176 (and .def_171 (and .def_173 (and .def_88 .def_92)))))))))))))))))))) (and .def_138 (and .loc.9 (and .loc.7 (and .def_43 (and .def_44 (and .loc.6 (and .def_185 (and .def_104 (and .def_101 (and .def_182 (and .def_98 (and .def_95 (and .def_179 (and .def_176 (and .def_171 (and .def_173 (and .def_92 (and .def_88 (and C1_9 C1_12)))))))))))))))))))) (and (and (and .def_306 .def_308) .def_311) .def_314)) (and (or C1_9 (and (= .x.343 (store D_9 Z_9 (store .def_248 (+ U_9 10) 0))) (and (= .x.354 (select (select .x.343 Z_9) (+ U_9 .x.357))) (and (= Z_9 .x.355) (and (= .x.357 0) (and (= U_9 .x.367) .def_327)))))) (and .def_259 (and .def_46 (and .def_120 (and .def_118 (and .def_116 (and .loc.8 (and .loc.7 (and .def_44 (and .loc.5 (and .def_185 (and .def_104 (and .def_101 (and .def_182 (and .def_98 (and .def_95 .def_334))))))))))))))))) (and .def_259 (and .def_46 (and .def_120 (and .def_118 (and .def_116 (and .def_190 (and .loc.8 (and .def_43 (and .loc.4 (and .def_314 (and .def_185 (and .def_104 (and .def_311 (and .def_101 (and .def_182 (and .def_98 (and .def_95 (and .def_179 (and .def_176 (and .def_306 (and .def_171 (and .def_173 (and .def_128 .def_308)))))))))))))))))))))))) (and (or C1_9 .def_377) (and .def_259 (and .def_46 (and .def_120 (and .def_118 (and .def_116 (and .def_190 (and .loc.8 (and .def_43 (and .loc.4 (and .def_314 (and .def_185 (and .def_104 (and .def_311 (and .def_101 (and .def_182 (and .def_98 (and .def_95 (and .def_179 (and .def_176 (and .def_306 (and .def_171 (and .def_173 (and .def_92 .def_308))))))))))))))))))))))))) (and (= L_9 .x.351) (= S_9 .x.358))) (and (or C1_9 (and (= .x.343 (store D_9 Z_9 (store .def_248 (+ Q_9 U_9) L_9))) (and (<= (- 128) L_9) (and (<= L_9 127) (not .def_377))))) (and (or C1_12 (= (+ Q_9 (* (- 1) .x.356)) (- 1))) (and .def_259 (and .def_46 (and .def_138 (and .def_120 (and .def_118 (and .def_116 (and .loc.7 (and .def_43 (and .loc.4 (and .def_314 (and .def_185 (and .def_104 (and .def_311 (and .def_101 (and .def_182 (and .def_98 (and .def_95 (and .def_179 (and .def_306 (and .def_171 .def_334))))))))))))))))))))))) (and (= J_9 .x.349) (and (= F_9 .x.345) (= H_9 .x.347)))) (and (or C1_9 (and (and (= .x.349 0) (= .x.345 0)) (= D1_0 (store B_9 0 0)))) (and (or C1_12 (and (and (and (and (and (and .def_327 (not (<= .x.340 .x.365))) (not (= .x.365 0))) (= .x.360 0)) (= (select D1_0 .x.365) 0)) (= .x.347 (store H_9 .x.365 11))) (= .x.341 (store D1_0 .x.365 1)))) (and .def_259 (and .def_46 (and .def_138 (and .def_120 (and .def_118 (and .def_116 (and .loc.7 (and .def_43 (and .def_44 (and .def_95 .def_308))))))))))))))))))))))))))))))))))))))))))))))))) (state |.x.340| |.x.341| |.x.342| |.x.343| |.x.344| |.x.345| |.x.346| |.x.347| |.x.348| |.x.349| |.x.350| |.x.351| |.x.352| |.x.353| |.x.354| |.x.355| |.x.356| |.x.357| |.x.358| |.x.359| |.x.360| |.x.361| |.x.362| |.x.363| |.x.364| |.x.365| |.x.366| |.x.367| |C1_12| |.loc.7| |.loc.8| |.loc.9| |.xtv.1|))))
(assert (forall ((|A_9| Int) (|B_9| (Array Int Int)) (|C_9| (Array Int Int)) (|D_9| (Array Int Int)) (|E_9| (Array Int Int)) (|F_9| Int) (|G_9| Int) (|H_9| (Array Int Int)) (|I_9| (Array Int Int)) (|J_9| Int) (|K_9| Int) (|L_9| Int) (|D1_5| Int) (|N_9| Int) (|O_9| Int) (|P_9| Int) (|Q_9| Int) (|R_9| Int) (|S_9| Int) (|T_9| Int) (|U_9| Int) (|V_9| Int) (|W_9| Int) (|X_9| Int) (|E1_5| Int) (|Z_9| Int) (|A1_9| Int) (|B1_9| Int) (|C1_9| Bool) (|.loc.4| Bool) (|.loc.5| Bool) (|.loc.6| Bool) (|D1_0| (Array Int Int)) (|.x.350| Int) (|.x.348| (Array Int Int)) (|.x.346| Int) (|.x.344| (Array Int Int)) (|.x.340| Int) (|.x.342| (Array Int Int)) (|.x.352| Int) (|.x.364| Int) (|C1_12| Bool) (|.x.341| (Array Int Int)) (|.x.359| Int) (|.x.360| Int) (|.x.362| Int) (|.x.365| Int) (|.loc.8| Bool) (|.x.354| Int) (|.x.353| Int) (|.x.356| Int) (|.x.357| Int) (|.x.361| Int) (|.x.366| Int) (|.loc.9| Bool) (|.loc.7| Bool) (|.x.355| Int) (|.x.343| (Array Int Int)) (|.x.363| Int) (|.x.367| Int) (|.x.351| Int) (|.x.358| Int) (|.x.349| Int) (|.x.345| Int) (|.x.347| (Array Int Int)) (|.xtv.1| (Array Int Int))) (=> (state |A_9| |B_9| |C_9| |D_9| |E_9| |F_9| |G_9| |H_9| |I_9| |J_9| |K_9| |L_9| |D1_5| |N_9| |O_9| |P_9| |Q_9| |R_9| |S_9| |T_9| |U_9| |V_9| |W_9| |X_9| |E1_5| |Z_9| |A1_9| |B1_9| |C1_9| |.loc.4| |.loc.5| |.loc.6| |D1_0|) (not (and C1_9 (and .loc.6 (and .loc.5 (not .loc.4))))))))
(check-sat)
